0             0             0    0  
5005          0             5    5  
3             0             3    0  
100003        0             3    100
2003          0             3    2  
2             0             2    0  
100100        0             100  100
3003          0             3    3  
3004          0             4    3  
4005          0             5    4  
3005          0             5    3  
1003          0             3    1  
100002        0             2    100
4004          0             4    4  
1             0             1    0  
100004        0             4    100
2004          0             4    2  
5             0             5    0  
1005          0             5    1  
1002          0             2    1  
2002          0             2    2  
1004          0             4    1  
1001          0             1    1  
100001        0             1    100
4             0             4    0  
100           0             100  0  
100005        0             5    100
2005          0             5    2  
